
Gurobi 9.5.0 (linux64) logging started Fri Dec  8 15:49:46 2023

Set parameter LogFile to value "/lustre1/scratch/348/vsc34888/JointResearch/05.Models/06.Benchmarking/G.Representative_days_based_on_Line_Benefit_NN_OC_fy_2/RTS24_mod1_ByStages_nc20/openStarNet_RTS24_mod1_ByStages_nc20.log"
Set parameter Method to value 2
Set parameter MIPFocus to value 1
Set parameter Presolve to value 2
Set parameter RINS to value 100
Set parameter MIPGap to value 0.01
Set parameter Threads to value 36
Set parameter TimeLimit to value 259200
Set parameter IterationLimit to value 760000000
Gurobi Optimizer version 9.5.0 build v9.5.0rc5 (linux64)
Thread count: 36 physical cores, 36 logical processors, using up to 36 threads
Optimize a model with 7458 rows, 5052 columns and 20316 nonzeros
Model fingerprint: 0x92831573
Variable types: 5031 continuous, 21 integer (21 binary)
Coefficient statistics:
  Matrix range     [8e-03, 2e+03]
  Objective range  [1e+00, 1e+00]
  Bounds range     [7e-05, 2e+00]
  RHS range        [7e-05, 2e+00]
Presolve removed 4445 rows and 2553 columns
Presolve time: 0.03s
Presolved: 3013 rows, 2499 columns, 10887 nonzeros
Variable types: 2478 continuous, 21 integer (21 binary)
Found heuristic solution: objective 110.1153649
Root relaxation presolve removed 5 rows and 5 columns
Root relaxation presolved: 3008 rows, 2494 columns, 10877 nonzeros

Root barrier log...

Ordering time: 0.05s

Barrier statistics:
 AA' NZ     : 8.901e+04
 Factor NZ  : 4.191e+05 (roughly 6 MB of memory)
 Factor Ops : 9.209e+07 (less than 1 second per iteration)
 Threads    : 36

                  Objective                Residual
Iter       Primal          Dual         Primal    Dual     Compl     Time
   0   8.47594933e+05 -3.43539852e+07  6.97e+00 5.60e+02  1.65e+04     0s
   1   1.36945374e+05 -1.06233483e+07  1.10e+00 6.11e-11  2.64e+03     0s
   2   3.05990728e+04 -7.50854493e+06  1.96e-01 5.92e-10  1.23e+03     0s
   3   1.12502747e+04 -6.47313451e+05  1.04e-02 1.23e-10  9.56e+01     0s
   4   5.86161805e+03 -1.68657343e+05  9.95e-04 2.07e-11  2.48e+01     0s
   5   2.50500518e+03 -1.59585555e+04  5.59e-05 3.64e-12  2.62e+00     0s
   6   4.47538210e+02 -4.63103996e+03  8.26e-07 1.82e-12  7.20e-01     0s
   7   3.19320873e+02 -1.12709135e+03  2.58e-07 1.82e-12  2.05e-01     0s
   8   1.14161196e+02 -2.52340739e+02  2.48e-08 1.82e-12  5.20e-02     0s
   9   9.19605795e+01 -5.31706057e+01  1.41e-08 1.82e-12  2.06e-02     0s
  10   7.36741201e+01  2.62878898e+01  7.21e-09 1.82e-12  6.72e-03     0s
  11   6.39069290e+01  4.13043464e+01  3.64e-09 1.82e-12  3.21e-03     0s
  12   6.10622768e+01  4.86707414e+01  2.65e-09 1.82e-12  1.76e-03     0s
  13   5.85383582e+01  5.25491975e+01  1.66e-09 3.64e-12  8.49e-04     0s
  14   5.64498477e+01  5.39426812e+01  8.09e-10 1.82e-12  3.56e-04     0s
  15   5.53330138e+01  5.45193266e+01  2.86e-10 1.82e-12  1.15e-04     0s
  16   5.46620052e+01  5.45786020e+01  1.12e-11 3.64e-12  1.18e-05     0s
  17   5.46548642e+01  5.46492563e+01  1.46e-11 1.82e-12  7.95e-07     0s
  18   5.46536235e+01  5.46535506e+01  3.02e-11 1.82e-12  1.03e-08     0s
  19   5.46535596e+01  5.46535591e+01  1.72e-10 1.82e-12  5.89e-11     0s
  20   5.46535595e+01  5.46535595e+01  7.93e-12 1.82e-12  1.02e-14     0s

Barrier solved model in 20 iterations and 0.41 seconds (0.14 work units)
Optimal objective 5.46535595e+01


Root relaxation: objective 5.465356e+01, 531 iterations, 0.37 seconds (0.09 work units)

    Nodes    |    Current Node    |     Objective Bounds      |     Work
 Expl Unexpl |  Obj  Depth IntInf | Incumbent    BestBd   Gap | It/Node Time

     0     0   54.65356    0   14  110.11536   54.65356  50.4%     -    0s
H    0     0                      94.4599918   56.43452  40.3%     -    0s
     0     0   56.43665    0   13   94.45999   56.43665  40.3%     -    0s
H    0     0                      84.2795611   56.43665  33.0%     -    0s
     0     0   56.69413    0   14   84.27956   56.69413  32.7%     -    0s
     0     0   56.70548    0   14   84.27956   56.70548  32.7%     -    0s
     0     0   56.71260    0   14   84.27956   56.71260  32.7%     -    0s
     0     0   56.71260    0   14   84.27956   56.71260  32.7%     -    0s
     0     0   57.34626    0   18   84.27956   57.34626  32.0%     -    0s
     0     0   57.37783    0   13   84.27956   57.37783  31.9%     -    0s
     0     0   57.52172    0   13   84.27956   57.52172  31.7%     -    0s
     0     0   58.08016    0   13   84.27956   58.08016  31.1%     -    0s
     0     0   58.32795    0   14   84.27956   58.32795  30.8%     -    0s
     0     0   58.73434    0   15   84.27956   58.73434  30.3%     -    0s
     0     0   58.78619    0   15   84.27956   58.78619  30.2%     -    0s
     0     0   58.82650    0   15   84.27956   58.82650  30.2%     -    0s
     0     0   58.98975    0   15   84.27956   58.98975  30.0%     -    0s
     0     0   59.63320    0   13   84.27956   59.63320  29.2%     -    0s
     0     0   60.01481    0   13   84.27956   60.01481  28.8%     -    0s
     0     0   60.01481    0   13   84.27956   60.01481  28.8%     -    0s
H    0     0                      83.4212408   60.01481  28.1%     -    1s
     0     0   60.29619    0   12   83.42124   60.29619  27.7%     -    1s
H    0     0                      73.2394055   60.29619  17.7%     -    2s
     0     2   60.29619    0   12   73.23941   60.29619  17.7%     -    2s
H  103    96                      73.1101912   60.45546  17.3%  89.9    3s
  1095   267   65.35899    9   10   73.11019   62.88314  14.0%  55.0    5s

Cutting planes:
  Gomory: 7
  Implied bound: 37
  MIR: 81
  Relax-and-lift: 12

Explored 2970 nodes (130452 simplex iterations) in 6.75 seconds (6.82 work units)
Thread count was 36 (of 36 available processors)

Solution count 6: 73.1102 73.2394 83.4212 ... 110.115

Optimal solution found (tolerance 1.00e-02)
Best objective 7.311019124981e+01, best bound 7.311019124981e+01, gap 0.0000%

Gurobi 9.5.0 (linux64) logging started Fri Dec  8 15:49:54 2023

Set parameter LogFile to value "/lustre1/scratch/348/vsc34888/JointResearch/05.Models/06.Benchmarking/G.Representative_days_based_on_Line_Benefit_NN_OC_fy_2/RTS24_mod1_ByStages_nc20/openStarNet_RTS24_mod1_ByStages_nc20.log"
Set parameter Method to value 2
Set parameter MIPFocus to value 1
Set parameter Presolve to value 2
Set parameter RINS to value 100
Set parameter MIPGap to value 0.01
Set parameter Threads to value 36
Set parameter TimeLimit to value 259200
Set parameter IterationLimit to value 760000000
No parameters matching 'relax_integrality' found
Gurobi Optimizer version 9.5.0 build v9.5.0rc5 (linux64)
Thread count: 36 physical cores, 36 logical processors, using up to 36 threads
Optimize a model with 7458 rows, 5031 columns and 18531 nonzeros
Model fingerprint: 0xed624468
Coefficient statistics:
  Matrix range     [8e-03, 2e+03]
  Objective range  [1e+00, 1e+00]
  Bounds range     [7e-05, 2e+00]
  RHS range        [7e-05, 2e+01]
Presolve removed 6199 rows and 2789 columns
Presolve time: 0.01s
Presolved: 1259 rows, 2263 columns, 5621 nonzeros

Ordering time: 0.00s

Barrier statistics:
 AA' NZ     : 3.082e+03
 Factor NZ  : 1.017e+04 (roughly 1 MB of memory)
 Factor Ops : 1.274e+05 (less than 1 second per iteration)
 Threads    : 1

                  Objective                Residual
Iter       Primal          Dual         Primal    Dual     Compl     Time
   0   1.27315042e+06 -1.40005002e+07  7.42e+00 1.92e+03  3.23e+04     0s
   1   8.81152301e+04 -9.28413618e+06  4.57e-01 2.26e-11  3.88e+03     0s
   2   4.80523447e+04 -3.03134810e+06  1.80e-01 2.48e-11  1.10e+03     0s
   3   2.08965742e+04 -5.58880243e+05  6.68e-03 1.55e-11  1.58e+02     0s
   4   1.08389506e+04 -4.90717553e+04  5.64e-05 1.42e-10  1.59e+01     0s
   5   1.54520410e+03 -4.87880949e+03  5.57e-06 7.28e-12  1.71e+00     0s
   6   3.42620344e+02 -1.35782333e+03  7.94e-09 3.64e-12  4.52e-01     0s
   7   2.17612040e+02 -2.36649108e+02  1.15e-09 3.64e-12  1.21e-01     0s
   8   1.00386424e+02  2.63792664e+01  5.22e-11 3.64e-12  1.97e-02     0s
   9   7.85976434e+01  6.46247730e+01  8.92e-12 3.64e-12  3.72e-03     0s
  10   7.46951755e+01  7.07292052e+01  2.41e-12 3.64e-12  1.05e-03     0s
  11   7.36855203e+01  7.21798019e+01  2.32e-12 3.64e-12  4.00e-04     0s
  12   7.31666989e+01  7.28297395e+01  9.98e-12 3.64e-12  8.96e-05     0s
  13   7.31185860e+01  7.30903906e+01  2.14e-12 3.64e-12  7.50e-06     0s
  14   7.31104881e+01  7.31098453e+01  4.67e-12 3.64e-12  1.71e-07     0s
  15   7.31101931e+01  7.31101878e+01  4.89e-12 3.64e-12  1.43e-09     0s
  16   7.31101912e+01  7.31101912e+01  1.42e-12 3.64e-12  2.42e-15     0s

Barrier solved model in 16 iterations and 0.03 seconds (0.02 work units)
Optimal objective 7.31101912e+01

Crossover log...

     278 DPushes remaining with DInf 0.0000000e+00                 0s
       0 DPushes remaining with DInf 0.0000000e+00                 0s

      66 PPushes remaining with PInf 0.0000000e+00                 0s
       0 PPushes remaining with PInf 0.0000000e+00                 0s

  Push phase complete: Pinf 0.0000000e+00, Dinf 3.1379738e-13      0s

Iteration    Objective       Primal Inf.    Dual Inf.      Time
      71    7.3110191e+01   0.000000e+00   0.000000e+00      0s

Use crossover to convert LP symmetric solution to basic solution...
Crossover log...

      57 PPushes remaining with PInf 0.0000000e+00                 0s
       0 PPushes remaining with PInf 0.0000000e+00                 0s

  Push phase complete: Pinf 0.0000000e+00, Dinf 3.0324371e-13      0s

Iteration    Objective       Primal Inf.    Dual Inf.      Time
     131    7.3110191e+01   0.000000e+00   0.000000e+00      0s

Solved in 131 iterations and 0.04 seconds (0.03 work units)
Optimal objective  7.311019125e+01
